\ENCODING=ISO-8859-1
\Problem name: ilog.cplex

Minimize
 obj1: 108622 x1 + 105957 x2 + 102914 x3 + 101227 x4 + 106112 x5 + 94386 x6
       + 90846 x7 + 108777 x8 + 98116 x9 + 101713 x10 + 93132 x11 + 93257 x12
       + 94715 x13 + 91142 x14 + 109299 x15 + 91290 x16 + 95401 x17
       + 104325 x18 + 96473 x19 + 105594 x20 + 95384 x21 + 104940 x22
       + 98552 x23 + 101143 x24 + 103624 x25 + 90672 x26 + 93452 x27
       + 100057 x28 + 108110 x29 + 102603 x30 + 103427 x31 + 102838 x32
       + 91753 x33 + 93336 x34 + 101575 x35 + 108687 x36 + 95678 x37
       + 98207 x38 + 91441 x39 + 93488 x40 + 105844 x41 + 107524 x42
       + 96012 x43 + 90441 x44 + 103557 x45 + 102036 x46 + 107412 x47
       + 105387 x48 + 90844 x49 + 108659 x50 + 99023 x51 + 109930 x52
       + 96665 x53 + 98651 x54 + 109481 x55 + 106789 x56 + 104580 x57
       + 97441 x58 + 107966 x59 + 99138 x60 + 102592 x61 + 103130 x62
       + 90472 x63 + 100558 x64 + 106417 x65 + 109799 x66 + 97872 x67
       + 90272 x68 + 105126 x69 + 107778 x70 + 102452 x71 + 107446 x72
       + 100007 x73 + 108189 x74 + 102749 x75 + 92420 x76 + 103260 x77
       + 96762 x78 + 105146 x79 + 104462 x80 + 100185 x81 + 93954 x82
       + 101174 x83 + 96950 x84 + 91765 x85 + 105009 x86 + 90581 x87
       + 97743 x88 + 108503 x89 + 95794 x90 + 91965 x91 + 105057 x92
       + 100907 x93 + 108070 x94 + 105123 x95 + 107271 x96 + 107211 x97
       + 91339 x98 + 102286 x99 + 108892 x100 + 94270 x101 + 107436 x102
       + 98917 x103 + 109516 x104 + 105711 x105 + 90280 x106 + 92124 x107
       + 97008 x108 + 93230 x109 + 96660 x110 + 92720 x111 + 103202 x112
       + 109514 x113 + 106008 x114 + 101894 x115 + 109658 x116 + 95514 x117
       + 95553 x118 + 99577 x119 + 98432 x120 + 109615 x121 + 90816 x122
       + 103375 x123 + 107855 x124 + 96507 x125 + 99265 x126 + 100526 x127
       + 96954 x128 + 90597 x129 + 92438 x130 + 94224 x131 + 90682 x132
       + 103248 x133 + 103224 x134 + 105405 x135 + 97368 x136 + 93113 x137
       + 107069 x138 + 96374 x139 + 99663 x140 + 104505 x141 + 98550 x142
       + 93647 x143 + 100719 x144 + 99981 x145 + 98039 x146 + 103946 x147
       + 98500 x148 + 90253 x149 + 107138 x150 + 96080 x151 + 96566 x152
       + 102067 x153 + 92491 x154 + 91503 x155 + 104816 x156 + 109627 x157
       + 103100 x158 + 98768 x159 + 103762 x160 + 93504 x161 + 104369 x162
       + 99458 x163 + 107794 x164 + 97022 x165 + 108823 x166 + 91707 x167
       + 91170 x168 + 93242 x169 + 99563 x170 + 108706 x171 + 100564 x172
       + 101276 x173 + 108336 x174 + 99045 x175 + 104236 x176 + 108772 x177
       + 98866 x178 + 101424 x179 + 94143 x180 + 91582 x181 + 93689 x182
       + 95898 x183 + 90125 x184 + 99003 x185 + 95935 x186 + 103914 x187
       + 93756 x188 + 100946 x189 + 106206 x190 + 100254 x191 + 103536 x192
       + 92025 x193 + 99153 x194 + 91407 x195 + 92811 x196 + 96778 x197
       + 104328 x198 + 106935 x199 + 107127 x200 + 98702 x201 + 97515 x202
       + 92372 x203 + 91208 x204 + 102255 x205 + 100782 x206 + 95810 x207
       + 97422 x208 + 108662 x209 + 106588 x210 + 99662 x211 + 94609 x212
       + 90733 x213 + 97777 x214 + 96082 x215 + 102880 x216 + 98849 x217
       + 100085 x218 + 104487 x219 + 90560 x220 + 93306 x221 + 100724 x222
       + 93948 x223 + 104094 x224 + 94887 x225 + 109413 x226 + 102335 x227
       + 92367 x228 + 95551 x229 + 107383 x230 + 100096 x231 + 108582 x232
       + 97051 x233 + 105306 x234 + 102861 x235 + 91166 x236 + 96902 x237
       + 97253 x238 + 108899 x239 + 104069 x240 + 98308 x241 + 94500 x242
       + 105041 x243 + 96401 x244 + 103505 x245 + 90389 x246 + 107766 x247
       + 101510 x248 + 98414 x249 + 117572 x250 + 185553 x251 + 199617 x252
       + 196560 x253 + 205852 x254 + 205362 x255 + 189592 x256 + 201068 x257
       + 193560 x258 + 197032 x259 + 181585 x260 + 214494 x261 + 212997 x262
       + 190708 x263 + 187713 x264 + 219767 x265 + 212110 x266 + 183145 x267
       + 212981 x268 + 193014 x269 + 218888 x270 + 208963 x271 + 194076 x272
       + 204250 x273 + 185845 x274 + 199227 x275 + 214689 x276 + 187168 x277
       + 197383 x278 + 213349 x279 + 193052 x280 + 205599 x281 + 184677 x282
       + 189362 x283 + 203715 x284 + 200155 x285 + 200875 x286 + 200500 x287
       + 215575 x288 + 218323 x289 + 211329 x290 + 212612 x291 + 181989 x292
       + 214726 x293 + 209217 x294 + 187277 x295 + 186341 x296 + 215529 x297
       + 196370 x298 + 189605 x299 + 176624 x300
Subject To
 c1:   x4 - x7 + x18 + x20 - x27 + x28 - x31 - x32 + x36 - x37 + x38 - x41
       - x42  = 0
 c2:   x54 - x57 + x68 + x70 - x77 + x78 - x81 - x82 + x86 - x87 + x88 - x91
       - x92  = 0
 c3:   x104 - x107 + x118 + x120 - x127 + x128 - x131 - x132 + x136 - x137
       + x138 - x141 - x142  = 0
 c4:   x154 - x157 + x168 + x170 - x177 + x178 - x181 - x182 + x186 - x187
       + x188 - x191 - x192  = 0
 c5:   x204 - x207 + x218 + x220 - x227 + x228 - x231 - x232 + x236 - x237
       + x238 - x241 - x242  = 1
 c6:   x2 - x8 + x13 - x16 + x21 - x22 - x28 + x31 - x34 - x39 - x40  = 0
 c7:   x52 - x58 + x63 - x66 + x71 - x72 - x78 + x81 - x84 - x89 - x90  = 0
 c8:   x102 - x108 + x113 - x116 + x121 - x122 - x128 + x131 - x134 - x139
       - x140  = 0
 c9:   x152 - x158 + x163 - x166 + x171 - x172 - x178 + x181 - x184 - x189
       - x190  = 0
 c10:  x202 - x208 + x213 - x216 + x221 - x222 - x228 + x231 - x234 - x239
       - x240  = 0
 c11:  x3 - x4 + x8 - x10 + x11 - x25 + x29 + x42 + x46  = 0
 c12:  x53 - x54 + x58 - x60 + x61 - x75 + x79 + x92 + x96  = 0
 c13:  x103 - x104 + x108 - x110 + x111 - x125 + x129 + x142 + x146  = 0
 c14:  x153 - x154 + x158 - x160 + x161 - x175 + x179 + x192 + x196  = 0
 c15:  x203 - x204 + x208 - x210 + x211 - x225 + x229 + x242 + x246  = 0
 c16:  x1 - x2 - x6 - x15 + x23 - x24 - x38 + x39 + x44 - x46 + x48  = 0
 c17:  x51 - x52 - x56 - x65 + x73 - x74 - x88 + x89 + x94 - x96 + x98  = -1
 c18:  x101 - x102 - x106 - x115 + x123 - x124 - x138 + x139 + x144 - x146
       + x148  = 1
 c19:  x151 - x152 - x156 - x165 + x173 - x174 - x188 + x189 + x194 - x196
       + x198  = -1
 c20:  x201 - x202 - x206 - x215 + x223 - x224 - x238 + x239 + x244 - x246
       + x248  = 0
 c21:  - x1 + x5 + x7 + x16 - x17 + x26 + x30 - x43  = -1
 c22:  - x51 + x55 + x57 + x66 - x67 + x76 + x80 - x93  = 0
 c23:  - x101 + x105 + x107 + x116 - x117 + x126 + x130 - x143  = 0
 c24:  - x151 + x155 + x157 + x166 - x167 + x176 + x180 - x193  = 0
 c25:  - x201 + x205 + x207 + x216 - x217 + x226 + x230 - x243  = 0
 c26:  - x9 + x17 - x21 + x24 - x30 + x33 + x37 - x48 - x49  = 0
 c27:  - x59 + x67 - x71 + x74 - x80 + x83 + x87 - x98 - x99  = 0
 c28:  - x109 + x117 - x121 + x124 - x130 + x133 + x137 - x148 - x149  = 0
 c29:  - x159 + x167 - x171 + x174 - x180 + x183 + x187 - x198 - x199  = 0
 c30:  - x209 + x217 - x221 + x224 - x230 + x233 + x237 - x248 - x249  = 0
 c31:  - x11 + x15 - x18 + x19 + x25 - x26 + x32 + x34 + x43 - x44 + x45 - x50
        = 1
 c32:  - x61 + x65 - x68 + x69 + x75 - x76 + x82 + x84 + x93 - x94 + x95 - x100
        = 0
 c33:  - x111 + x115 - x118 + x119 + x125 - x126 + x132 + x134 + x143 - x144
       + x145 - x150  = 0
 c34:  - x161 + x165 - x168 + x169 + x175 - x176 + x182 + x184 + x193 - x194
       + x195 - x200  = 1
 c35:  - x211 + x215 - x218 + x219 + x225 - x226 + x232 + x234 + x243 - x244
       + x245 - x250  = -1
 c36:  x6 + x10 + x12 + x22 - x23 + x27 - x29 - x33 - x36 + x47  = 0
 c37:  x56 + x60 + x62 + x72 - x73 + x77 - x79 - x83 - x86 + x97  = 0
 c38:  x106 + x110 + x112 + x122 - x123 + x127 - x129 - x133 - x136 + x147  = 0
 c39:  x156 + x160 + x162 + x172 - x173 + x177 - x179 - x183 - x186 + x197  = 0
 c40:  x206 + x210 + x212 + x222 - x223 + x227 - x229 - x233 - x236 + x247  = 0
 c41:  - x5 + x9 - x13 - x14 - x20 + x35 - x45 - x47  = 0
 c42:  - x55 + x59 - x63 - x64 - x70 + x85 - x95 - x97  = 1
 c43:  - x105 + x109 - x113 - x114 - x120 + x135 - x145 - x147  = 0
 c44:  - x155 + x159 - x163 - x164 - x170 + x185 - x195 - x197  = 0
 c45:  - x205 + x209 - x213 - x214 - x220 + x235 - x245 - x247  = 0
 c46:  - x3 - x12 + x14 - x19 - x35 + x40 + x41 + x49 + x50  = 0
 c47:  - x53 - x62 + x64 - x69 - x85 + x90 + x91 + x99 + x100  = 0
 c48:  - x103 - x112 + x114 - x119 - x135 + x140 + x141 + x149 + x150  = -1
 c49:  - x153 - x162 + x164 - x169 - x185 + x190 + x191 + x199 + x200  = 0
 c50:  - x203 - x212 + x214 - x219 - x235 + x240 + x241 + x249 + x250  = 0
 c51:  4 x1 + 4 x51 + 4 x101 + 4 x151 + 4 x201 - 9 x251 <= 0
 c52:  4 x2 + 4 x52 + 4 x102 + 4 x152 + 4 x202 - 11 x252 <= 0
 c53:  4 x3 + 4 x53 + 4 x103 + 4 x153 + 4 x203 - 10 x253 <= 0
 c54:  4 x4 + 4 x54 + 4 x104 + 4 x154 + 4 x204 - 9 x254 <= 0
 c55:  4 x5 + 4 x55 + 4 x105 + 4 x155 + 4 x205 - 10 x255 <= 0
 c56:  4 x6 + 4 x56 + 4 x106 + 4 x156 + 4 x206 - 10 x256 <= 0
 c57:  4 x7 + 4 x57 + 4 x107 + 4 x157 + 4 x207 - 11 x257 <= 0
 c58:  4 x8 + 4 x58 + 4 x108 + 4 x158 + 4 x208 - 10 x258 <= 0
 c59:  4 x9 + 4 x59 + 4 x109 + 4 x159 + 4 x209 - 9 x259 <= 0
 c60:  4 x10 + 4 x60 + 4 x110 + 4 x160 + 4 x210 - 10 x260 <= 0
 c61:  4 x11 + 4 x61 + 4 x111 + 4 x161 + 4 x211 - 10 x261 <= 0
 c62:  4 x12 + 4 x62 + 4 x112 + 4 x162 + 4 x212 - 9 x262 <= 0
 c63:  4 x13 + 4 x63 + 4 x113 + 4 x163 + 4 x213 - 10 x263 <= 0
 c64:  4 x14 + 4 x64 + 4 x114 + 4 x164 + 4 x214 - 10 x264 <= 0
 c65:  4 x15 + 4 x65 + 4 x115 + 4 x165 + 4 x215 - 11 x265 <= 0
 c66:  4 x16 + 4 x66 + 4 x116 + 4 x166 + 4 x216 - 10 x266 <= 0
 c67:  4 x17 + 4 x67 + 4 x117 + 4 x167 + 4 x217 - 9 x267 <= 0
 c68:  4 x18 + 4 x68 + 4 x118 + 4 x168 + 4 x218 - 10 x268 <= 0
 c69:  4 x19 + 4 x69 + 4 x119 + 4 x169 + 4 x219 - 10 x269 <= 0
 c70:  4 x20 + 4 x70 + 4 x120 + 4 x170 + 4 x220 - 10 x270 <= 0
 c71:  4 x21 + 4 x71 + 4 x121 + 4 x171 + 4 x221 - 10 x271 <= 0
 c72:  4 x22 + 4 x72 + 4 x122 + 4 x172 + 4 x222 - 11 x272 <= 0
 c73:  4 x23 + 4 x73 + 4 x123 + 4 x173 + 4 x223 - 11 x273 <= 0
 c74:  4 x24 + 4 x74 + 4 x124 + 4 x174 + 4 x224 - 9 x274 <= 0
 c75:  4 x25 + 4 x75 + 4 x125 + 4 x175 + 4 x225 - 11 x275 <= 0
 c76:  4 x26 + 4 x76 + 4 x126 + 4 x176 + 4 x226 - 10 x276 <= 0
 c77:  4 x27 + 4 x77 + 4 x127 + 4 x177 + 4 x227 - 10 x277 <= 0
 c78:  4 x28 + 4 x78 + 4 x128 + 4 x178 + 4 x228 - 11 x278 <= 0
 c79:  4 x29 + 4 x79 + 4 x129 + 4 x179 + 4 x229 - 10 x279 <= 0
 c80:  4 x30 + 4 x80 + 4 x130 + 4 x180 + 4 x230 - 11 x280 <= 0
 c81:  4 x31 + 4 x81 + 4 x131 + 4 x181 + 4 x231 - 11 x281 <= 0
 c82:  4 x32 + 4 x82 + 4 x132 + 4 x182 + 4 x232 - 10 x282 <= 0
 c83:  4 x33 + 4 x83 + 4 x133 + 4 x183 + 4 x233 - 11 x283 <= 0
 c84:  4 x34 + 4 x84 + 4 x134 + 4 x184 + 4 x234 - 9 x284 <= 0
 c85:  4 x35 + 4 x85 + 4 x135 + 4 x185 + 4 x235 - 9 x285 <= 0
 c86:  4 x36 + 4 x86 + 4 x136 + 4 x186 + 4 x236 - 10 x286 <= 0
 c87:  4 x37 + 4 x87 + 4 x137 + 4 x187 + 4 x237 - 11 x287 <= 0
 c88:  4 x38 + 4 x88 + 4 x138 + 4 x188 + 4 x238 - 10 x288 <= 0
 c89:  4 x39 + 4 x89 + 4 x139 + 4 x189 + 4 x239 - 10 x289 <= 0
 c90:  4 x40 + 4 x90 + 4 x140 + 4 x190 + 4 x240 - 10 x290 <= 0
 c91:  4 x41 + 4 x91 + 4 x141 + 4 x191 + 4 x241 - 9 x291 <= 0
 c92:  4 x42 + 4 x92 + 4 x142 + 4 x192 + 4 x242 - 9 x292 <= 0
 c93:  4 x43 + 4 x93 + 4 x143 + 4 x193 + 4 x243 - 9 x293 <= 0
 c94:  4 x44 + 4 x94 + 4 x144 + 4 x194 + 4 x244 - 10 x294 <= 0
 c95:  4 x45 + 4 x95 + 4 x145 + 4 x195 + 4 x245 - 10 x295 <= 0
 c96:  4 x46 + 4 x96 + 4 x146 + 4 x196 + 4 x246 - 10 x296 <= 0
 c97:  4 x47 + 4 x97 + 4 x147 + 4 x197 + 4 x247 - 10 x297 <= 0
 c98:  4 x48 + 4 x98 + 4 x148 + 4 x198 + 4 x248 - 10 x298 <= 0
 c99:  4 x49 + 4 x99 + 4 x149 + 4 x199 + 4 x249 - 10 x299 <= 0
 c100: 4 x50 + 4 x100 + 4 x150 + 4 x200 + 4 x250 - 10 x300 <= 0
Bounds
 0 <= x1 <= 1
 0 <= x2 <= 1
 0 <= x3 <= 1
 0 <= x4 <= 1
 0 <= x5 <= 1
 0 <= x6 <= 1
 0 <= x7 <= 1
 0 <= x8 <= 1
 0 <= x9 <= 1
 0 <= x10 <= 1
 0 <= x11 <= 1
 0 <= x12 <= 1
 0 <= x13 <= 1
 0 <= x14 <= 1
 0 <= x15 <= 1
 0 <= x16 <= 1
 0 <= x17 <= 1
 0 <= x18 <= 1
 0 <= x19 <= 1
 0 <= x20 <= 1
 0 <= x21 <= 1
 0 <= x22 <= 1
 0 <= x23 <= 1
 0 <= x24 <= 1
 0 <= x25 <= 1
 0 <= x26 <= 1
 0 <= x27 <= 1
 0 <= x28 <= 1
 0 <= x29 <= 1
 0 <= x30 <= 1
 0 <= x31 <= 1
 0 <= x32 <= 1
 0 <= x33 <= 1
 0 <= x34 <= 1
 0 <= x35 <= 1
 0 <= x36 <= 1
 0 <= x37 <= 1
 0 <= x38 <= 1
 0 <= x39 <= 1
 0 <= x40 <= 1
 0 <= x41 <= 1
 0 <= x42 <= 1
 0 <= x43 <= 1
 0 <= x44 <= 1
 0 <= x45 <= 1
 0 <= x46 <= 1
 0 <= x47 <= 1
 0 <= x48 <= 1
 0 <= x49 <= 1
 0 <= x50 <= 1
 0 <= x51 <= 1
 0 <= x52 <= 1
 0 <= x53 <= 1
 0 <= x54 <= 1
 0 <= x55 <= 1
 0 <= x56 <= 1
 0 <= x57 <= 1
 0 <= x58 <= 1
 0 <= x59 <= 1
 0 <= x60 <= 1
 0 <= x61 <= 1
 0 <= x62 <= 1
 0 <= x63 <= 1
 0 <= x64 <= 1
 0 <= x65 <= 1
 0 <= x66 <= 1
 0 <= x67 <= 1
 0 <= x68 <= 1
 0 <= x69 <= 1
 0 <= x70 <= 1
 0 <= x71 <= 1
 0 <= x72 <= 1
 0 <= x73 <= 1
 0 <= x74 <= 1
 0 <= x75 <= 1
 0 <= x76 <= 1
 0 <= x77 <= 1
 0 <= x78 <= 1
 0 <= x79 <= 1
 0 <= x80 <= 1
 0 <= x81 <= 1
 0 <= x82 <= 1
 0 <= x83 <= 1
 0 <= x84 <= 1
 0 <= x85 <= 1
 0 <= x86 <= 1
 0 <= x87 <= 1
 0 <= x88 <= 1
 0 <= x89 <= 1
 0 <= x90 <= 1
 0 <= x91 <= 1
 0 <= x92 <= 1
 0 <= x93 <= 1
 0 <= x94 <= 1
 0 <= x95 <= 1
 0 <= x96 <= 1
 0 <= x97 <= 1
 0 <= x98 <= 1
 0 <= x99 <= 1
 0 <= x100 <= 1
 0 <= x101 <= 1
 0 <= x102 <= 1
 0 <= x103 <= 1
 0 <= x104 <= 1
 0 <= x105 <= 1
 0 <= x106 <= 1
 0 <= x107 <= 1
 0 <= x108 <= 1
 0 <= x109 <= 1
 0 <= x110 <= 1
 0 <= x111 <= 1
 0 <= x112 <= 1
 0 <= x113 <= 1
 0 <= x114 <= 1
 0 <= x115 <= 1
 0 <= x116 <= 1
 0 <= x117 <= 1
 0 <= x118 <= 1
 0 <= x119 <= 1
 0 <= x120 <= 1
 0 <= x121 <= 1
 0 <= x122 <= 1
 0 <= x123 <= 1
 0 <= x124 <= 1
 0 <= x125 <= 1
 0 <= x126 <= 1
 0 <= x127 <= 1
 0 <= x128 <= 1
 0 <= x129 <= 1
 0 <= x130 <= 1
 0 <= x131 <= 1
 0 <= x132 <= 1
 0 <= x133 <= 1
 0 <= x134 <= 1
 0 <= x135 <= 1
 0 <= x136 <= 1
 0 <= x137 <= 1
 0 <= x138 <= 1
 0 <= x139 <= 1
 0 <= x140 <= 1
 0 <= x141 <= 1
 0 <= x142 <= 1
 0 <= x143 <= 1
 0 <= x144 <= 1
 0 <= x145 <= 1
 0 <= x146 <= 1
 0 <= x147 <= 1
 0 <= x148 <= 1
 0 <= x149 <= 1
 0 <= x150 <= 1
 0 <= x151 <= 1
 0 <= x152 <= 1
 0 <= x153 <= 1
 0 <= x154 <= 1
 0 <= x155 <= 1
 0 <= x156 <= 1
 0 <= x157 <= 1
 0 <= x158 <= 1
 0 <= x159 <= 1
 0 <= x160 <= 1
 0 <= x161 <= 1
 0 <= x162 <= 1
 0 <= x163 <= 1
 0 <= x164 <= 1
 0 <= x165 <= 1
 0 <= x166 <= 1
 0 <= x167 <= 1
 0 <= x168 <= 1
 0 <= x169 <= 1
 0 <= x170 <= 1
 0 <= x171 <= 1
 0 <= x172 <= 1
 0 <= x173 <= 1
 0 <= x174 <= 1
 0 <= x175 <= 1
 0 <= x176 <= 1
 0 <= x177 <= 1
 0 <= x178 <= 1
 0 <= x179 <= 1
 0 <= x180 <= 1
 0 <= x181 <= 1
 0 <= x182 <= 1
 0 <= x183 <= 1
 0 <= x184 <= 1
 0 <= x185 <= 1
 0 <= x186 <= 1
 0 <= x187 <= 1
 0 <= x188 <= 1
 0 <= x189 <= 1
 0 <= x190 <= 1
 0 <= x191 <= 1
 0 <= x192 <= 1
 0 <= x193 <= 1
 0 <= x194 <= 1
 0 <= x195 <= 1
 0 <= x196 <= 1
 0 <= x197 <= 1
 0 <= x198 <= 1
 0 <= x199 <= 1
 0 <= x200 <= 1
 0 <= x201 <= 1
 0 <= x202 <= 1
 0 <= x203 <= 1
 0 <= x204 <= 1
 0 <= x205 <= 1
 0 <= x206 <= 1
 0 <= x207 <= 1
 0 <= x208 <= 1
 0 <= x209 <= 1
 0 <= x210 <= 1
 0 <= x211 <= 1
 0 <= x212 <= 1
 0 <= x213 <= 1
 0 <= x214 <= 1
 0 <= x215 <= 1
 0 <= x216 <= 1
 0 <= x217 <= 1
 0 <= x218 <= 1
 0 <= x219 <= 1
 0 <= x220 <= 1
 0 <= x221 <= 1
 0 <= x222 <= 1
 0 <= x223 <= 1
 0 <= x224 <= 1
 0 <= x225 <= 1
 0 <= x226 <= 1
 0 <= x227 <= 1
 0 <= x228 <= 1
 0 <= x229 <= 1
 0 <= x230 <= 1
 0 <= x231 <= 1
 0 <= x232 <= 1
 0 <= x233 <= 1
 0 <= x234 <= 1
 0 <= x235 <= 1
 0 <= x236 <= 1
 0 <= x237 <= 1
 0 <= x238 <= 1
 0 <= x239 <= 1
 0 <= x240 <= 1
 0 <= x241 <= 1
 0 <= x242 <= 1
 0 <= x243 <= 1
 0 <= x244 <= 1
 0 <= x245 <= 1
 0 <= x246 <= 1
 0 <= x247 <= 1
 0 <= x248 <= 1
 0 <= x249 <= 1
 0 <= x250 <= 1
 0 <= x251 <= 1
 0 <= x252 <= 1
 0 <= x253 <= 1
 0 <= x254 <= 1
 0 <= x255 <= 1
 0 <= x256 <= 1
 0 <= x257 <= 1
 0 <= x258 <= 1
 0 <= x259 <= 1
 0 <= x260 <= 1
 0 <= x261 <= 1
 0 <= x262 <= 1
 0 <= x263 <= 1
 0 <= x264 <= 1
 0 <= x265 <= 1
 0 <= x266 <= 1
 0 <= x267 <= 1
 0 <= x268 <= 1
 0 <= x269 <= 1
 0 <= x270 <= 1
 0 <= x271 <= 1
 0 <= x272 <= 1
 0 <= x273 <= 1
 0 <= x274 <= 1
 0 <= x275 <= 1
 0 <= x276 <= 1
 0 <= x277 <= 1
 0 <= x278 <= 1
 0 <= x279 <= 1
 0 <= x280 <= 1
 0 <= x281 <= 1
 0 <= x282 <= 1
 0 <= x283 <= 1
 0 <= x284 <= 1
 0 <= x285 <= 1
 0 <= x286 <= 1
 0 <= x287 <= 1
 0 <= x288 <= 1
 0 <= x289 <= 1
 0 <= x290 <= 1
 0 <= x291 <= 1
 0 <= x292 <= 1
 0 <= x293 <= 1
 0 <= x294 <= 1
 0 <= x295 <= 1
 0 <= x296 <= 1
 0 <= x297 <= 1
 0 <= x298 <= 1
 0 <= x299 <= 1
 0 <= x300 <= 1
Binaries
 x251  x252  x253  x254  x255  x256  x257  x258  x259  x260  x261  x262  x263 
 x264  x265  x266  x267  x268  x269  x270  x271  x272  x273  x274  x275  x276 
 x277  x278  x279  x280  x281  x282  x283  x284  x285  x286  x287  x288  x289 
 x290  x291  x292  x293  x294  x295  x296  x297  x298  x299  x300 
End
